109058
108827
104488
104488
104488
104488
104488
104488
104488
104488
104488
103424
101409
101409
99676.5
99676.5
99676.5
98257.5
98257.5
98002.2
95679
95679
93170.4
93170.4
93170.4
93170.4
93170.4
93170.4
93170.4
93170.4
92892.1
92892.1
90889.5
90889.5
90889.5
90889.5
87990.3
87052.4
87052.4
87052.4
87052.4
87052.4
87052.4
87052.4
86756.3
86756.3
85303.6
84853.5
84169.5
81857.3
81857.3
81857.3
81857.3
81857.3
79556.5
79556.5
79149.1
79149.1
79149.1
79047.2
79047.2
79047.2
79047.2
77755.2
77755.2
77755.2
77674.9
77674.9
77261
77261
77261
77261
77261
77261
77261
77261
77261
77261
76900.1
76900.1
76900.1
76900.1
76110.5
76110.5
75525.1
75525.1
73276.5
73276.5
73276.5
73276.5
73276.5
72496.2
72496.2
72496.2
72496.2
72496.2
70214.6
70214.6
70214.6
70214.6
